p cnf 21 16
-1 20 0 
-2 -1 20 0 
-3 20 0 
-4 -1 -5 -6 20 0 
-7 20 0 
-2 -8 -1 -9 20 0 
-1 -10 -11 20 0 
-2 -8 -1 -4 -12 20 0 
-13 20 0 
-14 20 0 
-15 20 0 
-4 -16 -17 21 0 
-16 21 0 
-7 21 0 
-18 21 0 
-19 21 0 
